c preprocessed version of kroC100.tsp, 97 vertices, 277 edges
p td 97 277
0 1
0 8
0 59
0 58
60 0
9 0
2 1
8 1
1 93
1 7
3 2
2 93
2 4
2 89
2 20
2 88
3 4
3 17
3 89
5 4
17 4
16 4
4 93
4 6
5 6
5 7
5 16
5 90
5 91
10 5
9 5
7 6
93 6
8 7
7 93
9 7
9 8
10 9
60 9
10 11
10 55
10 92
10 91
10 60
12 11
38 11
92 11
37 11
55 11
12 13
12 92
12 38
12 39
14 13
23 13
24 13
39 13
92 13
91 13
13 90
14 15
23 14
22 14
14 90
14 21
15 16
19 15
18 15
15 17
15 20
15 21
15 90
17 16
16 90
18 17
89 17
19 18
18 89
19 20
19 89
20 21
88 20
89 20
22 21
86 21
88 21
87 21
23 22
22 24
22 87
22 85
23 24
25 24
24 53
85 24
24 39
24 54
26 25
42 25
25 52
76 25
25 53
25 85
26 27
26 43
26 51
26 42
26 80
26 76
27 28
27 73
27 74
27 80
27 51
29 28
45 28
28 50
73 28
44 28
28 51
29 30
29 72
29 47
29 50
29 73
31 30
68 30
70 30
47 30
72 30
81 30
30 49
32 31
31 64
68 31
31 49
67 31
66 31
33 32
61 32
62 32
32 63
32 64
32 49
33 34
33 61
33 49
33 48
35 34
34 56
34 61
34 83
34 84
34 48
34 46
35 36
35 56
35 46
35 45
35 44
36 37
41 36
42 36
36 56
36 44
36 55
36 43
38 37
41 37
37 55
37 40
38 39
38 40
39 40
39 54
41 40
40 52
53 40
54 40
41 42
41 52
42 43
42 52
44 43
51 43
45 44
44 51
45 46
45 50
47 46
46 48
50 46
47 48
47 49
47 50
49 48
53 52
54 53
56 55
57 55
58 55
60 55
57 56
58 57
57 59
58 59
60 58
62 61
61 82
61 83
62 63
62 82
63 64
63 82
65 64
64 82
66 64
66 65
79 65
67 66
66 79
67 68
67 69
67 79
68 69
68 81
70 69
71 69
69 78
69 81
79 69
71 70
70 81
70 72
71 72
71 78
71 77
71 74
71 75
73 72
72 74
73 74
75 74
80 74
76 75
75 77
75 80
76 77
76 78
76 80
77 78
79 78
83 82
84 82
83 84
85 86
85 87
86 87
86 88
91 90
92 91
94 57
94 95
94 59
94 96
95 96
95 0
95 1
95 64
95 65
95 59
96 34
96 56
96 57
96 64
96 82
96 84
